5913
0 0 0 0 0 0 0 1 0 0 0 0 0 0 0 0 0 0 1 0 0 1 1 1 0 0 0 1 1 0 
18 21 18 23 23 22 7 21 27 27 23 23 23 22 18 18 21 21 21 7 7 22 22 22 22 23 27 18 27 27 27 23 23 23 22 22 7 7 21 18 27 18 28 23 28 7 7 22 22 18 21 7 7 18 18 18 21 22 23 28 23 27 7 28 27 28 27 27 28 27 
